POSCAR_small_H2O                        
1.0
     4.9906997680999998    0.0000000000000000    0.0000000000000000
     0.0000000000000000    5.7628002166999996    0.0000000000000000
     0.0000000000000000    0.0000000000000000   30.0000000000000000
   Ag
   12
Selective dynamics
Cartesian
     0.000000000         0.000000000         0.999999978   F   F   F
     0.000000000         2.881400108         0.999999978   F   F   F
     2.495349884         4.322100163         0.999999978   F   F   F
     2.495349884         1.440700054         0.999999978   F   F   F
     0.831799903         1.440700054         5.705250055   T   T   T
     0.831799903         4.322100163         5.705250055   T   T   T
     3.327149936         0.000000000         5.705250055   T   T   T
     3.327149936         2.881400108         5.705250055   T   T   T
     1.663549981         2.881400108         3.352750093   T   T   T
     1.663549981         0.000000000         3.352750093   T   T   T
     4.158899716         1.440700054         3.352750093   T   T   T
     4.158899716         4.322100163         3.352750093   T   T   T
